<?xml version = "1.0" encoding="UTF-8" standalone="yes"?>
<CPLEXSolution version="1.2">
 <header
   problemName="C:\Users\513\Documents\CPLEX\server.lp"
   objectiveValue="0"
   solutionTypeValue="1"
   solutionTypeString="basic"
   solutionStatusValue="1"
   solutionStatusString="optimal"
   solutionMethodString="dual"
   primalFeasible="1"
   dualFeasible="1"
   simplexIterations="0"
   writeLevel="1"/>
 <quality
   epRHS="9.9999999999999995e-07"
   epOpt="9.9999999999999995e-07"
   maxPrimalInfeas="0"
   maxDualInfeas="0"
   maxPrimalResidual="0"
   maxDualResidual="0"
   maxX="0"
   maxPi="0"
   maxSlack="0"
   maxRedCost="1"
   kappa="0"/>
 <variables>
  <variable name="ALPHA" index="0" status="LL" value="0" reducedCost="1"/>
 </variables>
 <objectiveValues>
  <objective index="0" name="obj1" value="0"/>
 </objectiveValues>
</CPLEXSolution>
